TASK =     { BMATHS, AMATHS, ENGLISH, CHEM, PHYS };
duration = [2,5,4,3,6];
precedences = [(BMATHS,AMATHS),(CHEM,PHYS)];
due      = [20,20,20,20,20];
nonoverlapping = [ {BMATHS, AMATHS, CHEM, PHYS }];
options = [ {AMATHS,PHYS} ];
code = 2340120816
